 Mg B
 3.07516910744
	1.000000000    0.000000000    0.000000000
	-0.500000000    0.866025404    0.000000000
	0.000000000    0.000000000    1.146931402
 1 2
Direct
   0.0000000000000000  0.0000000000000000  0.0000000000000000
   0.3333333333333357  0.6666666666666643  0.5000000000000000
   0.6666666666666643  0.3333333333333357  0.5000000000000000 
