 Mg B
 3.07516910744
	1.000000000    0.000000000    0.000000000
	-0.500000000    0.866025404    0.000000000
	0.000000000    0.000000000    1.146931402
 1 2
Direct
   0.0000000000000000   0.0000000000000000   0.0000000000000000
   0.3333333332563532   0.6666666665127065   0.4999999998256216
   0.6666666666281766   0.3333333332563532   0.4999999998256216
